Route #1: 25 53 6 24 15 7 46 43
Route #2: 40 5 12 9 38 22 50 23
Route #3: 28 14 51 44 17 8 10 18 19
Route #4: 2 30 54 34 31 20 55 11 33 49 13
Route #5: 16 35 48 32 36 3
Route #6: 21 26 4 39 47 42 37 29
Route #7: 45 41 1 52 27
Cost 742